NAME: ACTUAL_TOURS/amz0773
TYPE: TOUR
COMMENT: RouteID_5234d7fd-b590-4fd7-bc6e-12e3e40870ba
DIMENSION: 159
TOUR_SECTION
103
93
27
75
73
31
66
13
8
28
50
146
62
78
151
101
158
108
131
18
117
139
71
36
16
129
22
128
150
88
65
126
56
134
64
107
48
92
2
51
148
26
21
105
69
17
1
145
127
98
6
84
94
45
119
152
52
11
125
120
35
99
32
121
72
83
159
42
49
116
15
144
25
7
24
111
77
43
41
10
39
106
141
59
97
110
115
100
79
30
12
67
40
140
95
109
76
63
80
5
61
82
58
23
60
157
123
130
114
135
29
154
85
91
37
156
137
70
132
153
142
74
44
155
34
68
54
113
96
136
4
138
89
81
19
14
55
112
57
124
33
47
122
38
149
53
143
118
3
9
87
20
147
102
133
46
104
86
90
-1
EOF
